TITL tmp/synt_recon_e.res in P2(1)
REM Old TITL CSD_CIF_AAGGAG10 structure
REM SHELXT solution in P2(1): R1 0.748, Rweak 0.067, Alpha 0.011
REM <I/s>   0.000 for    0 systematic absences,  Orientation as input
REM Formula found by SHELXT:  C43 N16

CELL  1.00000  12.3120   4.9590  15.8760   90.000   99.070   90.000
ZERR    1.000   0.0020   0.0020   0.0030    0.030    0.030    0.030
LATT -1
SYMM -X, 1/2+Y, -Z
SFAC C H N O
UNIT 400
L.S. 10
BOND
LIST 6
FMAP 2
PLAN 20
N001  3  0.31439 -0.06822  0.56475 11.00000  0.02315   7.55
N002  3  0.32058 -0.14335  0.50179 11.00000  0.03592   7.51
N003  3  0.94015  0.53765 -0.45131 11.00000  0.04861   7.29
N004  3  0.76623  0.45304 -0.15164 11.00000  0.07245   7.26
N005  3  0.12295  0.08756  0.84095 11.00000  0.07787   7.18
C006  1  0.86467  1.14335 -0.33293 11.00000  0.01246   7.15
N007  3  0.65987  0.06133 -0.10845 11.00000  0.07745   7.13
N008  3  0.58235  0.49479  0.13109 11.00000  0.09420   7.08
C009  1  0.44336  0.65558  0.37076 11.00000  0.02582   6.97
C00A  1  0.20906  0.54840  0.66801 11.00000  0.06906   6.84
N00B  3  0.21219  0.73111  0.69565 11.00000  0.05240   6.76
C00C  1  0.49791  0.11084  0.25979 11.00000  0.01105   6.68
C00D  1  0.83298  1.11970 -0.26283 11.00000  0.07916   6.66
N00E  3  0.24213  0.49526  0.61698 11.00000  0.07309   6.65
N00F  3  0.65662  0.08249  0.01645 11.00000  0.01755   6.61
N00G  3  0.01854  0.56284  0.93598 11.00000  0.10953   6.57
C00H  1  0.76289  0.65844 -0.21857 11.00000  0.02389   6.55
C00I  1  0.55960  0.62712  0.06008 11.00000  0.10234   6.46
C00J  1  0.17054 -0.05602  0.75632 11.00000  0.05471   6.46
N00K  3  0.41066  0.56137  0.43470 11.00000  0.07244   6.36
C00L  1  0.32884  0.22496  0.46396 11.00000  0.05612   6.28
C00M  1  0.26082  0.34761  0.55260 11.00000  0.07433   6.27
C00N  1  0.93148  0.62852 -0.36354 11.00000  0.08312   6.25
N00O  3  0.04313  0.43856  0.89141 11.00000  0.10121   6.18
C00P  1  0.32722  0.03835  0.50299 11.00000  0.08829   6.14
C00Q  1  0.14280 -0.11464  0.78789 11.00000  0.06064   6.12
C00R  1  0.80600  0.80671 -0.25897 11.00000  0.03914   6.11
C00S  1  0.86673  0.84911 -0.33712 11.00000  0.03483   6.09
C00T  1  0.16668  0.33986  0.74949 11.00000  0.03970   6.06
C00U  1  0.07374  0.45591  0.93679 11.00000  0.09007   5.98
C00V  1  0.68396  0.00456 -0.01007 11.00000  0.07070   5.93
C00W  1  0.72742  0.63146 -0.12471 11.00000  0.03083   5.74
C00X  1  0.25551  0.76756  0.62509 11.00000  0.07670   5.60
C00Y  1  0.65993  0.27039 -0.01124 11.00000  0.02204   5.59
C00Z  1  0.47496  0.17711  0.32673 11.00000  0.02209   5.55
C010  1  0.58872  0.49488  0.22136 11.00000  0.07765   5.53
C011  1  0.11840  0.10720  0.76077 11.00000  0.05859   5.52
N012  3  0.96837  0.74111 -0.41715 11.00000  0.03525   5.27
C013  1  0.32393 -0.00221  0.44622 11.00000  0.06486   5.20
N014  3  0.49610 -0.10324  0.22797 11.00000  0.08879   5.19
C015  1  0.60854  0.69944  0.17726 11.00000  0.03832   5.17
C016  1  0.40904  0.76122  0.41653 11.00000  0.01807   5.05
N017  3  0.87597  1.02936 -0.39443 11.00000  0.04409   5.00
C018  1  0.53931  0.28597  0.18017 11.00000  0.05446   4.89
C019  1  0.31144  0.14439  0.59181 11.00000  0.04637   4.89
C01A  1  0.82110  0.44340 -0.22465 11.00000  0.04303   4.87
C01B  1  0.06424  0.34407  0.84018 11.00000  0.04160   4.84
C01C  1  0.08365  0.59423  1.00375 11.00000  0.07513   4.80
C01D  1  0.77486  0.49985 -0.08237 11.00000  0.08384   4.80
C01E  1  0.46800  0.38520  0.29741 11.00000  0.13018   4.73
C01F  1  0.23535  0.55088  0.74193 11.00000  0.04805   4.71
C01G  1  0.46828  0.66343  0.29574 11.00000  0.07503   4.65
C01H  1  0.70932  0.30989 -0.12252 11.00000  0.15375   4.65
C01I  1  0.37176  0.45044  0.48775 11.00000  0.05325   4.39
C01J  1  0.46969  0.04274  0.17690 11.00000  0.07453   4.38
C01K  1  0.62447  0.60284  0.00801 11.00000  0.09908   4.29
C01L  1  0.77734  0.58916 -0.26418 11.00000  0.05669   4.29
C01M  1  0.88913  0.62590 -0.31965 11.00000  0.04123   3.91
C01N  1  0.06870 -0.00197  0.89729 11.00000  0.08552   3.89
HKLF 4
END
