TITL tmp/synt_recon_a.res in Pm
REM Old TITL CSD_CIF_AADRIB structure
REM SHELXT solution in Pm: R1 0.782, Rweak 0.001, Alpha 0.010
REM <I/s>   0.000 for    0 systematic absences,  Orientation as input
REM Formula found by SHELXT:  C129

CELL  1.00000  17.1250  11.4530   8.5900   90.000  109.180   90.000
ZERR    1.000   0.0030   0.0020   0.0020    0.030    0.030    0.030
LATT -1
SYMM X, -Y, Z
SFAC C H O
UNIT 400
L.S. 10
BOND
LIST 6
FMAP 2
PLAN 20
C001  1 -0.05521  0.00000  0.26312 10.50000  0.03318   6.86
C002  1  0.09241  0.50000  0.16441 10.50000  0.00811   6.67
C003  1  1.05668  1.50000  0.60734 10.50000  0.03578   6.51
C004  1  1.40326  1.00000  1.23371 10.50000  0.00876   6.49
C005  1  0.52018  1.00000  0.30756 10.50000  0.03983   6.46
C006  1  0.88881  0.50000  1.02774 10.50000  0.02575   6.46
C007  1  0.24172  0.50000  0.31989 10.50000  0.01293   6.45
C008  1  0.21945  0.00000  0.52258 10.50000  0.04476   6.41
C009  1  0.82917  1.50000  0.34888 10.50000  0.03452   6.38
C00A  1  0.59796  1.00000  0.42321 10.50000  0.01015   6.32
C00B  1 -0.35254  0.00000 -0.01468 10.50000  0.02022   6.32
C00C  1 -0.11296  0.00000  0.16721 10.50000  0.03826   6.30
C00D  1  0.36634  0.53991  0.41481 11.00000  0.02056   6.28
C00E  1  0.75601  0.50000  0.80639 10.50000  0.04647   6.25
C00F  1  0.56099  1.50000  0.09809 10.50000  0.00447   6.24
C00G  1  0.16933  0.55437  0.24510 11.00000  0.05164   6.22
C00H  1  0.01550  0.50000  0.09669 10.50000  0.07126   6.21
C00I  1  1.22972  1.00000  1.03086 10.50000  0.03225   6.18
C00J  1  0.86095  1.00000  0.65311 10.50000  0.02966   6.15
C00K  1  1.06539  1.00000  0.91109 10.50000  0.03432   6.10
C00L  1  1.11120  1.50000  0.69204 10.50000  0.05655   6.09
C00M  1  0.01250  0.05104  0.32566 11.00000  0.05245   6.09
C00N  1 -0.19577 -0.05798  0.10542 11.00000  0.04137   6.06
C00O  1  0.93859  1.50000  0.55786 10.50000  0.06096   6.03
C00P  1  0.46546  0.00000  0.78123 10.50000  0.11490   6.02
C00Q  1  0.68399  0.54429  0.74422 11.00000  0.02418   6.01
C00R  1  0.91982  1.04630  0.74588 11.00000  0.05637   5.99
C00S  1  0.50809  0.55458  0.59433 11.00000  0.03505   5.97
C00T  1 -0.40326 -0.04628 -0.09388 11.00000  0.10204   5.92
C00U  1  0.66437  1.50000  0.22077 10.50000  0.06684   5.92
C00V  1  0.36177  0.04017  0.69366 11.00000  0.14387   5.91
C00W  1  0.75099  1.50000  0.32509 10.50000  0.05716   5.90
C00X  1  0.61531  0.55494  0.64740 11.00000  0.05524   5.88
C00Y  1  0.41959  0.56998  0.47974 11.00000  0.05577   5.86
C00Z  1  0.97813  1.05034  0.81477 11.00000  0.04281   5.84
C010  1  0.31707  1.42551 -0.14349 11.00000  0.07246   5.81
C011  1  1.12722  1.00000  1.01423 10.50000  0.02713   5.76
C012  1  0.41969  1.50000 -0.02448 10.50000  0.08806   5.76
C013  1  0.50195  1.43902  0.08062 11.00000  0.05738   5.71
C014  1  0.73020  0.92271  0.58157 11.00000  0.05246   5.70
C015  1  0.24490  1.50000 -0.23371 10.50000  0.01303   5.70
C016  1  0.29773  0.00000  0.62737 10.50000  0.06568   5.64
C017  1  0.14503  0.06751  0.44495 11.00000  0.08036   5.57
C018  1  1.33169  1.06363  1.16227 11.00000  0.09234   5.54
C019  1  1.29057  1.00000  1.11279 10.50000  0.03379   5.54
C01A  1  0.84296  0.54892  0.91412 11.00000  0.03520   5.48
C01B  1 -0.27936 -0.07453  0.00758 11.00000  0.06591   5.46
C01C  1  1.05993  1.40151  0.63189 11.00000  0.07055   5.43
C01D  1  0.30130  0.55740  0.33365 11.00000  0.04626   5.41
C01E  1  0.77593  1.00000  0.53615 10.50000  0.04727   5.38
C01F  1 -0.04772  0.10023  0.28797 11.00000  0.03569   5.36
C01G  1  0.77844  0.61658  0.84328 11.00000  0.06485   5.27
C01H  1  1.12427  1.37837  0.71534 11.00000  0.03069   5.25
C01I  1  0.71039  0.62468  0.71951 11.00000  0.02184   5.20
C01J  1  0.20981  0.10472  0.50356 11.00000  0.04431   5.17
C01K  1  0.83503  1.39675  0.39771 11.00000  0.11562   5.14
C01L  1  0.01690  0.38329  0.06881 11.00000  0.07172   5.11
C01M  1  0.56799  1.39190  0.13015 11.00000  0.06276   5.11
C01N  1  0.08044  0.06317  0.46078 11.00000  0.02858   5.10
C01O  1  0.57367  0.89113  0.40797 11.00000  0.07701   5.04
C01P  1  1.08006  1.11417  0.88499 11.00000  0.04773   5.04
C01Q  1  0.27525  0.10900  0.58633 11.00000  0.04606   5.01
C01R  1  0.95373  1.37143  0.58234 11.00000  0.08576   4.96
C01S  1  0.69659  1.41014  0.25963 11.00000  0.10152   4.87
C01T  1  0.90174  1.35306  0.47036 11.00000  0.03530   4.84
C01U  1  0.51622  0.87887  0.29586 11.00000  0.06866   4.84
C01V  1  1.01021  1.12667  0.74598 11.00000  0.04192   4.62
C01W  1  1.19469  1.12039  0.95963 11.00000  0.07316   4.25
C01X  1  0.49000  1.32791  0.03417 11.00000  0.10423   4.06
C01Y  1  1.15023  1.17450  0.96146 11.00000  0.02997   4.03
C01Z  1  0.10419  0.16324  0.44456 11.00000  0.12236   4.02
C020  1  0.62524  0.81525  0.37779 11.00000  0.09039   3.84
C021  1  1.20197  1.18631  1.05303 11.00000  0.04491   3.80
C022  1  0.68998  0.82217  0.51193 11.00000  0.07880   3.77
C023  1  0.39291  0.68062  0.49502 11.00000  0.04314   3.76
C024  1 -0.01864  0.17009  0.24310 11.00000  0.09372   3.61
C025  1  0.79699  1.19352  0.61385 11.00000  0.06280   3.48
C026  1  0.87980  1.18099  0.71425 11.00000  0.07800   3.21
C027  1 -0.07447  0.18487  0.15546 11.00000  0.10142   3.03
HKLF 4
END
