TITL tmp/synt_recon_c.res in C2/m
REM Old TITL CSD_CIF_AHIDED structure
REM SHELXT solution in C2/m: R1 0.808, Rweak 0.001, Alpha 0.131
REM <I/s>   0.000 for    0 systematic absences,  Orientation as input
REM Formula found by SHELXT:  C76 O5

CELL  1.00000  12.2674   9.8227  13.2223   90.000  110.720   90.000
ZERR    1.000   0.0020   0.0020   0.0030    0.030    0.030    0.030
LATT  7
SYMM -X, Y, -Z
SFAC C H O
UNIT 4000
L.S. 10
BOND
LIST 6
FMAP 2
PLAN 20
C001  1  0.50000  1.00000  0.50000 10.25000  0.14257  10.46
C002  1  0.26051  1.00000  0.50932 10.50000  0.00010   9.75
C003  1  0.35524  1.00000  0.48553 10.50000  0.04498   9.52
O004  3  0.80650  1.00000  0.00841 10.50000  0.08809   9.26
C005  1  0.20070  1.00000  0.20448 10.50000  0.04794   8.42
C006  1  0.43619  0.85417  0.63683 11.00000  0.01629   8.26
C007  1  0.38453  0.75291  0.50951 11.00000  0.03245   7.95
O008  3  0.51649  0.88025  0.13170 11.00000  0.04628   7.75
O009  3  0.05510  1.00000  0.25100 10.50000  0.04401   7.75
O00A  3  0.67839  1.00000 -0.00692 10.50000  0.08158   7.60
C00B  1  0.84797  0.87631  0.10522 11.00000  0.02132   7.54
C00C  1  0.29003  0.88605  0.33546 11.00000  0.09202   7.50
C00D  1  0.41767  0.87919  0.35542 11.00000  0.01066   7.36
C00E  1  0.01387  0.86372  0.11424 11.00000  0.02779   7.28
C00F  1  0.41371  0.50000  0.49207 10.50000  0.03511   6.57
C00G  1 -0.01507  0.78033  0.27046 11.00000  0.03722   6.55
C00H  1  0.35038  1.00000  0.29124 10.50000  0.00010   6.44
C00I  1  0.15734  0.87397  0.36016 11.00000  0.03088   6.42
C00J  1  0.35749  1.00000  0.21204 10.50000  0.00010   6.32
C00K  1  0.42990  0.85341  0.44224 11.00000  0.03182   6.32
C00L  1  0.08260  0.74596  0.25617 11.00000  0.01507   6.25
C00M  1  0.14761  0.85455  0.11719 11.00000  0.03185   6.20
C00N  1  0.23846  1.00000  0.28759 10.50000  0.05126   6.13
C00O  1  0.94303  1.00000  0.02002 10.50000  0.00726   6.08
C00P  1  0.25000  0.75000  0.50000 10.50000  0.04056   6.08
C00Q  1  0.70790  0.77353  0.21607 11.00000  0.02994   6.04
C00R  1  0.07115  0.71293 -0.01915 11.00000  0.02144   5.89
C00S  1  0.68631  1.00000  0.22054 10.50000  0.07203   5.46
C00T  1  0.41272  0.83166  0.54166 11.00000  0.03408   5.36
C00U  1  0.22873  0.96912  0.40681 11.00000  0.04315   5.31
C00V  1  0.50000  1.00000  0.00000 10.25000  0.00010   5.28
C00W  1 -0.14013  0.77618  0.26523 11.00000  0.02654   5.28
C00X  1  0.03691  0.87178  0.36062 11.00000  0.04420   5.07
C00Y  1 -0.07100  0.89532  0.35355 11.00000  0.06485   4.87
C00Z  1 -0.05509  1.00000  0.24678 10.50000  0.00010   4.78
C010  1  0.38858  0.89592  0.13947 11.00000  0.03291   4.66
C011  1  0.00000  0.83853  0.00000 10.50000  0.06534   4.65
C012  1  0.18222  0.63016  0.34309 11.00000  0.04284   4.46
C013  1  0.21746  0.94192  0.13019 11.00000  0.09812   4.46
C014  1  0.59641  1.00000  0.22804 10.50000  0.00940   4.22
C015  1  0.28527  0.61473  0.37648 11.00000  0.00149   4.21
C016  1  0.50000  0.75391  0.50000 10.50000  0.07456   4.16
C017  1  0.35735  0.95107  0.37155 11.00000  0.01700   4.15
C018  1  0.64636  0.89273  0.13445 11.00000  0.03046   4.03
C019  1  0.28437  0.86237  0.11704 11.00000  0.02791   4.01
C01A  1 -0.14322  1.00000  0.24318 10.50000  0.02016   4.00
C01B  1  0.14823  0.79545  0.00494 11.00000  0.02468   3.90
C01C  1  0.22765  0.70626  0.42075 11.00000  0.11175   3.75
C01D  1  0.76675  0.88794  0.12844 11.00000  0.04168   3.52
C01E  1  0.25172  0.82394  0.40313 11.00000  0.05970   3.30
C01F  1  0.71879  0.82765  0.12117 11.00000  0.05101   3.01
HKLF 4
END
