TITL tmp/synt_recon_d.res in P2(1)/m
REM Old TITL CSD_CIF_AAGGAG10 structure
REM SHELXT solution in P2(1)/m: R1 1.014, Rweak 0.174, Alpha 0.042
REM <I/s>   0.000 for    0 systematic absences,  Orientation as input
REM Formula found by SHELXT:  C53 N14

CELL  1.00000  12.3120   4.9590  15.8760   90.000   99.070   90.000
ZERR    1.000   0.0020   0.0020   0.0030    0.030    0.030    0.030
LATT  1
SYMM -X, 1/2+Y, -Z
SFAC C H N O
UNIT 400
L.S. 10
BOND
LIST 6
FMAP 2
PLAN 20
N001  3  0.56903 -0.75000  0.15990 10.50000  0.03118   8.31
N002  3  0.14945  1.75000  0.76630 10.50000  0.01936   7.73
N003  3  0.76688 -0.75000 -0.10514 10.50000  0.04647   7.70
N004  3  0.66689 -1.25000  0.00696 10.50000  0.08522   7.45
N005  3  0.87479 -1.25000 -0.26237 10.50000  0.03850   7.34
C006  1  0.69865 -1.25000 -0.06741 10.50000  0.01947   7.27
N007  3  0.21467  1.25000  0.66043 10.50000  0.03270   7.23
N008  3  0.05836  2.25000  0.97671 10.50000  0.02459   7.21
N009  3  0.06301  2.25000  0.91453 10.50000  0.02017   7.19
N00A  3  0.79255 -0.75000 -0.16664 10.50000  0.02916   7.18
N00B  3  0.30727  0.75000  0.50574 10.50000  0.01888   7.03
C00C  1  0.56903 -0.75000  0.08249 10.50000  0.03165   6.93
C00D  1  0.05122  1.75000  0.41260 10.50000  0.03440   6.80
C00E  1  0.14560  1.96390  0.79544 11.00000  0.07678   6.69
C00F  1  0.60094 -0.88654  0.11696 11.00000  0.04801   6.60
C00G  1  0.85963 -1.25000 -0.33238 10.50000  0.01932   6.47
C00H  1  0.34537  0.75000  0.56241 10.50000  0.04327   6.40
C00I  1  0.49573 -0.25000  0.24663 10.50000  0.01525   6.33
C00J  1  0.61443 -0.92256  0.04684 11.00000  0.02342   6.29
C00K  1  0.39803  0.25000  0.41296 10.50000  0.07448   6.26
C00L  1  0.49257 -0.09491  0.28718 11.00000  0.02640   6.22
C00M  1  0.06028  1.75000  0.49164 10.50000  0.05102   6.20
C00N  1  0.15971  1.75000  0.83036 10.50000  0.03974   6.14
C00O  1  0.22754  1.10669  0.62518 11.00000  0.04423   6.02
C00P  1  0.62530 -0.75000 -0.00282 10.50000  0.05175   6.01
C00Q  1  0.38924  0.25000  0.34171 10.50000  0.05248   5.98
C00R  1  0.12949  1.75000  0.90462 10.50000  0.04156   5.87
C00S  1  0.74802 -0.75000 -0.23802 10.50000  0.04421   5.80
C00T  1  0.00315  2.07359  0.96252 11.00000  0.04562   5.78
C00U  1  0.31726  0.85194  0.60058 11.00000  0.04313   5.69
C00V  1  0.33718  0.48986  0.52808 11.00000  0.04668   5.47
C00W  1  0.00636  1.51180  0.53545 11.00000  0.03072   5.37
C00X  1  0.49512 -0.25000  0.17389 10.50000  0.06131   5.35
C00Y  1  0.49592 -0.25000  0.31653 10.50000  0.06853   5.31
C00Z  1  0.48804 -0.42960  0.21082 11.00000  0.04698   5.19
C010  1  0.04337  2.06649  0.88295 11.00000  0.07521   5.18
C011  1  0.85439 -1.43775 -0.22066 11.00000  0.06969   5.17
N012  3  0.03514  1.75000  0.34239 10.50000  0.03523   5.11
C013  1  0.74579 -0.97389 -0.05935 11.00000  0.05273   5.06
N014  3  0.40842  0.25000  0.26894 10.50000  0.02386   5.06
C015  1  0.57535 -0.55957  0.19140 11.00000  0.05396   4.94
C016  1  0.05222  2.25000  0.83638 10.50000  0.11483   4.90
C017  1  0.33134  0.75000  0.42636 10.50000  0.02873   4.87
C018  1  0.15549  1.57044  0.72208 11.00000  0.04584   4.75
N019  3  0.85995 -1.25000 -0.39930 10.50000  0.07479   4.31
C01A  1  0.35953  0.25000  0.48769 10.50000  0.04190   4.21
C01B  1  0.81985 -1.25000 -0.16831 10.50000  0.05041   4.19
C01C  1  0.13209  1.75000  0.68796 10.50000  0.07707   3.81
C01D  1  0.02998  1.75000  0.93772 10.50000  0.04831   3.69
C01E  1  0.59798 -0.75000  0.22447 10.50000  0.03371   3.63
C01F  1  0.69416 -1.25000 -0.14153 10.50000  0.03826   3.53
N01G  3  0.02817  1.75000  0.55643 10.50000  0.06121   3.50
HKLF 4
END
