TITL tmp/synt_recon_b.res in Cm
REM Old TITL CSD_CIF_AHIDED structure
REM SHELXT solution in Cm: R1 0.600, Rweak 0.000, Alpha 0.089
REM <I/s>   0.000 for    0 systematic absences,  Orientation as input
REM Formula found by SHELXT:  C63 O5

CELL  1.00000  12.2674   9.8227  13.2223   90.000  110.720   90.000
ZERR    1.000   0.0020   0.0020   0.0030    0.030    0.030    0.030
LATT -7
SYMM X, -Y, Z
SFAC C H O
UNIT 4000
L.S. 10
BOND
LIST 6
FMAP 2
PLAN 20
O001  3  0.38656  0.50000 -0.00202 10.50000  0.01498   8.84
C002  1  0.27586  0.50000  0.22323 10.50000  0.00010   8.58
C003  1  0.13085  0.50000  0.00800 10.50000  0.00010   8.27
C004  1  0.25974  0.50000  0.00893 10.50000  0.00742   8.27
C005  1  0.21014  0.61721  0.14563 11.00000  0.00526   7.89
O006  3  0.59501  0.86692  0.36272 11.00000  0.03997   7.69
O007  3  0.83323  0.50000  0.50900 10.50000  0.04861   7.59
C008  1  0.43812  0.50000  0.51788 10.50000  0.00278   7.54
O009  3  0.30892  0.50000  0.51120 10.50000  0.06607   7.50
O00A  3  0.18009  0.62566  0.86398 11.00000  0.01255   7.47
O00B  3  0.01982  0.76046  1.01554 11.00000  0.04722   7.36
O00C  3  0.53570  0.50000 -0.01072 10.50000  0.03834   7.30
C00D  1  0.07586  1.00000  0.24850 10.50000  0.04626   7.04
C00E  1  0.71001  0.50000  0.75796 10.50000  0.11207   6.79
C00F  1  0.19511  0.60778  0.05804 11.00000  0.03764   6.79
C00G  1  0.77719  0.36767  0.61533 11.00000  0.02841   6.61
C00H  1  0.54753  0.78811  0.25668 11.00000  0.04753   6.59
C00I  1  0.79852  0.63572  0.85883 11.00000  0.05495   6.57
C00J  1  0.12669  0.50000  0.75076 10.50000  0.04625   6.55
C00K  1  0.49007  0.70889  0.73609 11.00000  0.03458   6.51
C00L  1  0.86526  0.50000  0.99187 10.50000  0.07324   6.39
C00M  1  0.01443  0.50000 -0.01554 10.50000  0.09268   6.34
C00N  1  0.61404  0.62059  0.38897 11.00000  0.02083   6.32
C00O  1  0.72292  0.50000  0.50330 10.50000  0.06647   6.32
C00P  1  0.98943  0.50000  0.73866 10.50000  0.02636   6.21
C00Q  1  0.92765  0.63224  0.86597 11.00000  0.01803   6.20
C00R  1  0.50008  0.62961  0.62868 11.00000  0.01265   6.15
C00S  1  0.07435  0.63517  0.13531 11.00000  0.00423   6.12
C00T  1  0.84875  0.50000  0.78936 10.50000  0.00421   6.12
C00U  1  0.41899  0.50000  0.30253 10.50000  0.02150   6.11
C00V  1  0.56287  0.50000  0.51622 10.50000  0.00010   6.09
C00W  1  0.58829  0.76784  0.49158 11.00000  0.02062   5.89
C00X  1  0.49239  0.64051  0.12955 11.00000  0.02674   5.82
C00Y  1  0.25787  0.74983  1.00101 11.00000  0.04676   5.82
C00Z  1  0.37485  0.74404  0.99056 11.00000  0.02727   5.76
C010  1  0.24541  0.59933  0.38302 11.00000  0.06295   5.72
C011  1  0.34391  0.72915  0.72392 11.00000  0.03123   5.69
C012  1  0.64205  0.37085  0.62888 11.00000  0.02126   5.57
C013  1  0.74696  0.64287  0.38686 11.00000  0.02129   5.52
C014  1  1.14611  0.35793  0.62009 11.00000  0.03849   5.41
C015  1  0.35766  0.61248  0.13834 11.00000  0.05103   5.40
C016  1  0.67836  0.61731  0.88370 11.00000  0.04151   5.32
C017  1  0.41930  1.00000  0.24548 10.50000  0.03880   5.31
C018  1  0.65207  0.72721  0.24197 11.00000  0.11635   5.26
C019  1  0.59863  0.50000  0.73924 10.50000  0.03316   5.09
C01A  1  0.83047  0.50000  0.72473 10.50000  0.01623   5.04
C01B  1  0.86271  0.55883  0.89059 11.00000  0.02450   4.98
C01C  1  1.05186  0.63279  0.88927 11.00000  0.06712   4.95
C01D  1  0.61104  0.75710  0.77168 11.00000  0.04021   4.95
C01E  1  1.04982  0.35321  0.63400 11.00000  0.04157   4.85
C01F  1  0.43867  0.74354  0.48885 11.00000  0.04888   4.85
C01G  1  0.97602  0.50000  0.50933 10.50000  0.07773   4.75
C01H  1  0.41470  0.74497  0.25184 11.00000  0.07300   4.63
C01I  1  0.30184  0.60674  0.84653 11.00000  0.01181   4.63
C01J  1 -0.14611  0.60849  0.11424 11.00000  0.03417   4.52
C01K  1  0.34575  0.64090  0.39050 11.00000  0.02783   4.44
C01L  1  1.00394  0.57640  0.85071 11.00000  0.09420   4.24
C01M  1  0.15769  0.50000  0.24898 10.50000  0.07717   4.18
C01N  1  0.48224  0.63633  0.35661 11.00000  0.02409   4.15
C01O  1  0.31734  0.50000  0.69212 10.50000  0.09317   4.07
C01P  1  1.07917  0.50000  0.51588 10.50000  0.07654   4.07
C01Q  1  0.13114  0.75489  0.99744 11.00000  0.07261   4.00
C01R  1  0.49612  0.91210  0.37016 11.00000  0.08196   4.00
C01S  1  0.40816  0.59026  0.60989 11.00000  0.06414   3.99
C01T  1  0.79527  0.73266  0.48210 11.00000  0.03737   3.98
C01U  1  0.71547  0.61810  0.12196 11.00000  0.03792   3.97
C01V  1  0.50455  1.00000  0.26911 10.50000  0.02350   3.90
C01W  1  0.19984  1.00000  0.27379 10.50000  0.02707   3.89
C01X  1  0.42274  0.56464  0.41589 11.00000  0.06118   3.87
C01Y  1  0.91664  0.37700  0.64581 11.00000  0.09823   3.86
C01Z  1  0.40166  0.87084  0.37025 11.00000  0.02655   3.83
C020  1  0.35075  0.66950  0.88745 11.00000  0.03609   3.73
C021  1  0.54451  0.62601  0.87350 11.00000  0.07984   3.68
C022  1  0.23599  0.50000  0.75401 10.50000  0.01426   3.63
C023  1  0.69401  0.76089  0.49045 11.00000  0.05198   3.50
C024  1  0.28928  0.58502  0.64062 11.00000  0.03900   3.49
C025  1  0.27631  1.00000  0.23484 10.50000  0.06636   3.48
C026  1  0.42972  0.61145  0.86456 11.00000  0.03858   3.48
C027  1  0.71246  0.54205  0.96655 11.00000  0.08728   3.41
C028  1  0.77522  0.73090  0.24878 11.00000  0.05785   3.34
C029  1  0.58472  0.63160  0.12973 11.00000  0.10543   3.25
C02A  1 -0.06230  0.64908  0.13351 11.00000  0.07039   3.06
C02B  1  0.48346  0.50000  0.76213 10.50000  0.08800   3.06
HKLF 4
END
